p cnf 150 590
1 2 3 4 5 0
6 7 8 9 10 0
11 12 13 14 15 0
16 17 18 19 20 0
21 22 23 24 25 0
26 27 28 29 30 0
31 32 33 34 35 0
36 37 38 39 40 0
41 42 43 44 45 0
46 47 48 49 50 0
51 52 53 54 55 0
56 57 58 59 60 0
61 62 63 64 65 0
66 67 68 69 70 0
71 72 73 74 75 0
76 77 78 79 80 0
81 82 83 84 85 0
86 87 88 89 90 0
91 92 93 94 95 0
96 97 98 99 100 0
101 102 103 104 105 0
106 107 108 109 110 0
111 112 113 114 115 0
116 117 118 119 120 0
121 122 123 124 125 0
126 127 128 129 130 0
131 132 133 134 135 0
136 137 138 139 140 0
141 142 143 144 145 0
146 147 148 149 150 0
-1 -2 0
-1 -3 0
-1 -4 0
-1 -5 0
-2 -3 0
-2 -4 0
-2 -5 0
-3 -4 0
-3 -5 0
-4 -5 0
-6 -7 0
-6 -8 0
-6 -9 0
-6 -10 0
-7 -8 0
-7 -9 0
-7 -10 0
-8 -9 0
-8 -10 0
-9 -10 0
-11 -12 0
-11 -13 0
-11 -14 0
-11 -15 0
-12 -13 0
-12 -14 0
-12 -15 0
-13 -14 0
-13 -15 0
-14 -15 0
-16 -17 0
-16 -18 0
-16 -19 0
-16 -20 0
-17 -18 0
-17 -19 0
-17 -20 0
-18 -19 0
-18 -20 0
-19 -20 0
-21 -22 0
-21 -23 0
-21 -24 0
-21 -25 0
-22 -23 0
-22 -24 0
-22 -25 0
-23 -24 0
-23 -25 0
-24 -25 0
-26 -27 0
-26 -28 0
-26 -29 0
-26 -30 0
-27 -28 0
-27 -29 0
-27 -30 0
-28 -29 0
-28 -30 0
-29 -30 0
-31 -32 0
-31 -33 0
-31 -34 0
-31 -35 0
-32 -33 0
-32 -34 0
-32 -35 0
-33 -34 0
-33 -35 0
-34 -35 0
-36 -37 0
-36 -38 0
-36 -39 0
-36 -40 0
-37 -38 0
-37 -39 0
-37 -40 0
-38 -39 0
-38 -40 0
-39 -40 0
-41 -42 0
-41 -43 0
-41 -44 0
-41 -45 0
-42 -43 0
-42 -44 0
-42 -45 0
-43 -44 0
-43 -45 0
-44 -45 0
-46 -47 0
-46 -48 0
-46 -49 0
-46 -50 0
-47 -48 0
-47 -49 0
-47 -50 0
-48 -49 0
-48 -50 0
-49 -50 0
-51 -52 0
-51 -53 0
-51 -54 0
-51 -55 0
-52 -53 0
-52 -54 0
-52 -55 0
-53 -54 0
-53 -55 0
-54 -55 0
-56 -57 0
-56 -58 0
-56 -59 0
-56 -60 0
-57 -58 0
-57 -59 0
-57 -60 0
-58 -59 0
-58 -60 0
-59 -60 0
-61 -62 0
-61 -63 0
-61 -64 0
-61 -65 0
-62 -63 0
-62 -64 0
-62 -65 0
-63 -64 0
-63 -65 0
-64 -65 0
-66 -67 0
-66 -68 0
-66 -69 0
-66 -70 0
-67 -68 0
-67 -69 0
-67 -70 0
-68 -69 0
-68 -70 0
-69 -70 0
-71 -72 0
-71 -73 0
-71 -74 0
-71 -75 0
-72 -73 0
-72 -74 0
-72 -75 0
-73 -74 0
-73 -75 0
-74 -75 0
-76 -77 0
-76 -78 0
-76 -79 0
-76 -80 0
-77 -78 0
-77 -79 0
-77 -80 0
-78 -79 0
-78 -80 0
-79 -80 0
-81 -82 0
-81 -83 0
-81 -84 0
-81 -85 0
-82 -83 0
-82 -84 0
-82 -85 0
-83 -84 0
-83 -85 0
-84 -85 0
-86 -87 0
-86 -88 0
-86 -89 0
-86 -90 0
-87 -88 0
-87 -89 0
-87 -90 0
-88 -89 0
-88 -90 0
-89 -90 0
-91 -92 0
-91 -93 0
-91 -94 0
-91 -95 0
-92 -93 0
-92 -94 0
-92 -95 0
-93 -94 0
-93 -95 0
-94 -95 0
-96 -97 0
-96 -98 0
-96 -99 0
-96 -100 0
-97 -98 0
-97 -99 0
-97 -100 0
-98 -99 0
-98 -100 0
-99 -100 0
-101 -102 0
-101 -103 0
-101 -104 0
-101 -105 0
-102 -103 0
-102 -104 0
-102 -105 0
-103 -104 0
-103 -105 0
-104 -105 0
-106 -107 0
-106 -108 0
-106 -109 0
-106 -110 0
-107 -108 0
-107 -109 0
-107 -110 0
-108 -109 0
-108 -110 0
-109 -110 0
-111 -112 0
-111 -113 0
-111 -114 0
-111 -115 0
-112 -113 0
-112 -114 0
-112 -115 0
-113 -114 0
-113 -115 0
-114 -115 0
-116 -117 0
-116 -118 0
-116 -119 0
-116 -120 0
-117 -118 0
-117 -119 0
-117 -120 0
-118 -119 0
-118 -120 0
-119 -120 0
-121 -122 0
-121 -123 0
-121 -124 0
-121 -125 0
-122 -123 0
-122 -124 0
-122 -125 0
-123 -124 0
-123 -125 0
-124 -125 0
-126 -127 0
-126 -128 0
-126 -129 0
-126 -130 0
-127 -128 0
-127 -129 0
-127 -130 0
-128 -129 0
-128 -130 0
-129 -130 0
-131 -132 0
-131 -133 0
-131 -134 0
-131 -135 0
-132 -133 0
-132 -134 0
-132 -135 0
-133 -134 0
-133 -135 0
-134 -135 0
-136 -137 0
-136 -138 0
-136 -139 0
-136 -140 0
-137 -138 0
-137 -139 0
-137 -140 0
-138 -139 0
-138 -140 0
-139 -140 0
-141 -142 0
-141 -143 0
-141 -144 0
-141 -145 0
-142 -143 0
-142 -144 0
-142 -145 0
-143 -144 0
-143 -145 0
-144 -145 0
-146 -147 0
-146 -148 0
-146 -149 0
-146 -150 0
-147 -148 0
-147 -149 0
-147 -150 0
-148 -149 0
-148 -150 0
-149 -150 0
-1 -7 0
-3 -7 0
-2 -29 0
-4 -29 0
-3 -49 0
-4 -50 0
-5 -54 0
-1 -54 0
-5 -83 0
-4 -82 0
-2 -89 0
-3 -90 0
-2 -124 0
-2 -122 0
-4 -147 0
-5 -147 0
-10 -65 0
-7 -61 0
-7 -82 0
-8 -83 0
-9 -92 0
-10 -95 0
-9 -119 0
-6 -119 0
-7 -128 0
-10 -126 0
-13 -17 0
-11 -17 0
-12 -25 0
-14 -21 0
-11 -34 0
-15 -31 0
-12 -60 0
-11 -60 0
-15 -67 0
-12 -70 0
-12 -107 0
-12 -109 0
-13 -123 0
-15 -122 0
-11 -148 0
-13 -146 0
-17 -31 0
-20 -33 0
-16 -43 0
-17 -44 0
-18 -69 0
-20 -69 0
-16 -91 0
-18 -92 0
-16 -129 0
-18 -127 0
-19 -144 0
-20 -145 0
-24 -67 0
-22 -66 0
-23 -76 0
-24 -79 0
-25 -107 0
-23 -106 0
-22 -117 0
-23 -116 0
-25 -122 0
-22 -125 0
-21 -147 0
-21 -150 0
-28 -31 0
-29 -35 0
-28 -48 0
-26 -48 0
-26 -80 0
-27 -76 0
-30 -81 0
-30 -85 0
-27 -87 0
-29 -86 0
-28 -119 0
-26 -116 0
-28 -122 0
-27 -124 0
-29 -128 0
-29 -127 0
-30 -144 0
-28 -143 0
-28 -149 0
-30 -149 0
-34 -39 0
-32 -39 0
-35 -54 0
-33 -54 0
-33 -68 0
-35 -67 0
-34 -92 0
-32 -92 0
-39 -41 0
-40 -41 0
-36 -56 0
-40 -57 0
-39 -75 0
-37 -75 0
-37 -85 0
-36 -83 0
-38 -86 0
-37 -88 0
-39 -116 0
-36 -116 0
-36 -121 0
-39 -121 0
-36 -134 0
-36 -135 0
-43 -67 0
-45 -70 0
-44 -71 0
-44 -72 0
-41 -98 0
-42 -97 0
-43 -104 0
-42 -104 0
-41 -113 0
-41 -111 0
-45 -122 0
-43 -125 0
-42 -150 0
-45 -146 0
-46 -56 0
-50 -60 0
-47 -63 0
-46 -63 0
-46 -72 0
-48 -75 0
-49 -115 0
-47 -111 0
-47 -134 0
-49 -135 0
-47 -142 0
-48 -141 0
-51 -105 0
-52 -101 0
-55 -117 0
-52 -119 0
-51 -124 0
-54 -124 0
-53 -134 0
-52 -133 0
-58 -87 0
-56 -90 0
-60 -107 0
-57 -108 0
-57 -117 0
-56 -117 0
-57 -122 0
-56 -124 0
-62 -68 0
-63 -70 0
-64 -92 0
-63 -95 0
-62 -113 0
-61 -114 0
-62 -120 0
-65 -118 0
-63 -129 0
-62 -128 0
-63 -131 0
-64 -133 0
-62 -138 0
-65 -136 0
-69 -71 0
-69 -75 0
-68 -85 0
-66 -81 0
-68 -87 0
-66 -90 0
-70 -94 0
-69 -93 0
-70 -109 0
-69 -109 0
-67 -124 0
-68 -121 0
-67 -134 0
-69 -135 0
-71 -109 0
-71 -107 0
-73 -139 0
-72 -136 0
-80 -106 0
-76 -109 0
-80 -127 0
-76 -127 0
-80 -144 0
-76 -145 0
-81 -89 0
-81 -87 0
-82 -94 0
-81 -91 0
-85 -99 0
-84 -99 0
-83 -115 0
-81 -114 0
-81 -119 0
-83 -118 0
-89 -94 0
-90 -93 0
-87 -97 0
-89 -99 0
-89 -115 0
-86 -113 0
-86 -129 0
-90 -129 0
-89 -144 0
-89 -145 0
-91 -115 0
-95 -112 0
-94 -135 0
-93 -131 0
-94 -145 0
-92 -142 0
-91 -146 0
-94 -148 0
-97 -101 0
-96 -105 0
-97 -115 0
-99 -115 0
-99 -136 0
-100 -139 0
-96 -144 0
-97 -144 0
-100 -147 0
-99 -147 0
-104 -125 0
-101 -122 0
-103 -135 0
-104 -132 0
-105 -138 0
-103 -140 0
-104 -149 0
-105 -149 0
-107 -113 0
-109 -113 0
-109 -118 0
-107 -120 0
-107 -124 0
-108 -122 0
-107 -137 0
-106 -137 0
-110 -143 0
-109 -141 0
-108 -150 0
-109 -147 0
-115 -123 0
-112 -124 0
-117 -125 0
-116 -123 0
-116 -132 0
-117 -135 0
-117 -138 0
-116 -140 0
-118 -150 0
-119 -147 0
-124 -128 0
-125 -127 0
